qbf_easy_train/easy_3609_SAT.qdimacs
p cnf 30 81
a 18 14 0
e 1 2 3 4 5 6 7 8 9 10 11 12 13 15 16 17 19 20 21 22 23 24 25 26 27 28 29 30 0
2 -3 -4 0
-2 3 -4 0
2 3 4 0
-2 -3 4 0
5 -1 0
5 4 0
1 -4 -5 0
-7 -4 0
-7 6 0
4 -6 7 0
-8 5 0
-8 -7 0
-5 7 8 0
-10 -9 0
-10 -6 0
9 6 10 0
11 10 0
11 3 0
-10 -3 -11 0
-13 12 0
-13 11 0
-12 -11 13 0
-14 11 0
-14 13 0
-11 -13 14 0
15 14 0
15 -1 0
-14 1 -15 0
-16 9 0
-16 2 0
-9 -2 16 0
18 1 0
18 6 0
-1 -6 -18 0
-17 18 -19 0
17 -18 -19 0
-17 -18 19 0
17 18 19 0
12 19 -20 0
-12 -19 -20 0
12 -19 20 0
-12 19 20 0
21 16 0
21 -20 0
-16 20 -21 0
-15 -21 -22 0
15 21 -22 0
-15 21 22 0
15 -21 22 0
23 8 0
23 22 0
-8 -22 -23 0
-6 -12 -24 0
6 12 -24 0
-6 12 24 0
6 -12 24 0
26 -3 0
26 -25 0
3 25 -26 0
27 24 0
27 26 0
-24 -26 -27 0
23 27 -28 0
-23 -27 -28 0
23 -27 28 0
-23 27 28 0
-9 -7 -29 0
9 7 -29 0
-9 7 29 0
9 -7 29 0
-30 -28 0
-30 -29 0
28 29 30 0
4 10 -18 -29 15 0
8 5 26 21 0
1 19 -17 30 0
-17 -21 13 0
-28 -3 6 -18 -7 5 0
21 3 18 8 0
-12 -10 -21 19 2 0
30 0
