sat_easy_train/easy_3609_SAT.dimacs
p cnf 130 424
-5 -3 0
-5 -4 0
3 4 5 0
-6 2 0
-6 5 0
-2 -5 6 0
-7 -6 0
-7 -1 0
6 1 7 0
-1 7 -8 0
1 -7 -8 0
-1 -7 8 0
1 7 8 0
9 -6 0
9 6 0
10 8 0
10 9 0
-8 -9 -10 0
-12 11 0
-12 9 0
-11 -9 12 0
-13 10 0
-13 -12 0
-10 12 13 0
16 15 0
16 -1 0
-15 1 -16 0
-17 -14 0
-17 -16 0
14 16 17 0
-19 18 0
-19 -1 0
-18 1 19 0
-20 8 0
-20 19 0
-8 -19 20 0
-21 17 0
-21 -20 0
-17 20 21 0
-22 13 0
-22 21 0
-13 -21 22 0
-23 -2 0
-23 -3 0
2 3 23 0
-25 2 0
-25 24 0
-2 -24 25 0
26 25 0
26 -4 0
-25 4 -26 0
27 9 0
27 -4 0
-9 4 -27 0
-28 -5 0
-28 -19 0
5 19 28 0
27 -28 -29 0
-27 28 -29 0
27 28 29 0
-27 -28 29 0
-30 -26 0
-30 29 0
26 -29 30 0
-11 31 0
11 31 0
32 17 0
32 -31 0
-17 31 -32 0
33 32 0
33 16 0
-32 -16 -33 0
34 -27 0
34 16 0
27 -16 -34 0
35 -33 0
35 34 0
33 -34 -35 0
36 -12 0
36 35 0
12 -35 -36 0
37 -30 0
37 -36 0
30 36 -37 0
38 -23 0
38 -37 0
23 37 -38 0
22 -38 -39 0
-22 38 -39 0
22 38 39 0
-22 -38 39 0
-41 40 0
-41 24 0
-40 -24 41 0
16 41 -42 0
-16 -41 -42 0
16 -41 42 0
-16 41 42 0
43 2 0
43 -42 0
-2 42 -43 0
39 -43 -44 0
-39 43 -44 0
39 43 44 0
-39 -43 44 0
20 40 -45 0
-20 -40 -45 0
20 -40 45 0
-20 40 45 0
47 -45 0
47 46 0
45 -46 -47 0
47 -42 -48 0
-47 42 -48 0
47 42 48 0
-47 -42 48 0
49 -42 0
49 -9 0
42 9 -49 0
50 -49 0
50 -47 0
49 47 -50 0
-51 48 0
-51 -50 0
-48 50 51 0
52 -8 0
52 24 0
8 -24 -52 0
53 -45 0
53 -52 0
45 52 -53 0
-4 53 -54 0
4 -53 -54 0
-4 -53 54 0
4 53 54 0
56 -55 0
56 -20 0
55 20 -56 0
-49 -9 -57 0
49 9 -57 0
-49 9 57 0
49 -9 57 0
-10 -3 -58 0
10 3 -58 0
-10 3 58 0
10 -3 58 0
-59 57 0
-59 -58 0
-57 58 59 0
-60 56 0
-60 -59 0
-56 59 60 0
62 -61 0
62 42 0
61 -42 -62 0
62 -16 -63 0
-62 16 -63 0
62 16 63 0
-62 -16 63 0
64 -60 0
64 63 0
60 -63 -64 0
66 65 0
66 -46 0
-65 46 -66 0
67 28 0
67 -66 0
-28 66 -67 0
-68 -12 0
-68 -4 0
12 4 68 0
-69 18 0
-69 31 0
-18 -31 69 0
69 14 -70 0
-69 -14 -70 0
69 -14 70 0
-69 14 70 0
-68 70 -71 0
68 -70 -71 0
-68 -70 71 0
68 70 71 0
-67 -71 -72 0
67 71 -72 0
-67 71 72 0
67 -71 72 0
73 -64 0
73 72 0
64 -72 -73 0
-74 54 0
-74 -73 0
-54 73 74 0
-75 -51 0
-75 -74 0
51 74 75 0
44 75 -76 0
-44 -75 -76 0
44 -75 76 0
-44 75 76 0
-77 -40 0
-77 -61 0
40 61 77 0
78 77 0
78 52 0
-77 -52 -78 0
-66 -79 0
66 -79 0
-80 -65 -81 0
80 65 -81 0
-80 65 81 0
80 -65 81 0
-46 81 -82 0
46 -81 -82 0
-46 -81 82 0
46 81 82 0
-83 79 0
-83 82 0
-79 -82 83 0
84 78 0
84 83 0
-78 -83 -84 0
40 -66 -85 0
-40 66 -85 0
40 66 85 0
-40 -66 85 0
85 49 -86 0
-85 -49 -86 0
85 -49 86 0
-85 49 86 0
87 -29 0
87 -5 0
29 5 -87 0
-88 86 0
-88 87 0
-86 -87 88 0
-89 -53 0
-89 80 0
53 -80 89 0
90 -16 0
90 89 0
16 -89 -90 0
-91 -88 0
-91 90 0
88 -90 91 0
-92 11 0
-92 -47 0
-11 47 92 0
93 -77 0
93 -47 0
77 47 -93 0
-94 31 0
-94 40 0
-31 -40 94 0
95 -93 0
95 94 0
93 -94 -95 0
31 81 -96 0
-31 -81 -96 0
31 -81 96 0
-31 81 96 0
97 -6 0
97 -96 0
6 96 -97 0
-98 17 0
-98 -19 0
-17 19 98 0
-99 -98 0
-99 5 0
98 -5 99 0
100 97 0
100 99 0
-97 -99 -100 0
101 -95 0
101 -100 0
95 100 -101 0
-92 101 -102 0
92 -101 -102 0
-92 -101 102 0
92 101 102 0
103 -91 0
103 -102 0
91 102 -103 0
-84 -103 -104 0
84 103 -104 0
-84 103 104 0
84 -103 104 0
10 34 -105 0
-10 -34 -105 0
10 -34 105 0
-10 34 105 0
-52 105 -106 0
52 -105 -106 0
-52 -105 106 0
52 105 106 0
-107 -104 0
-107 106 0
104 -106 107 0
108 -42 0
108 14 0
42 -14 -108 0
109 32 0
109 -27 0
-32 27 -109 0
110 46 0
110 109 0
-46 -109 -110 0
-108 -110 -111 0
108 110 -111 0
-108 110 111 0
108 -110 111 0
112 -107 0
112 111 0
107 -111 -112 0
114 41 0
114 1 0
-41 -1 -114 0
115 -113 0
115 114 0
113 -114 -115 0
116 -61 0
116 16 0
61 -16 -116 0
-117 -116 0
-117 3 0
116 -3 117 0
118 66 0
118 -45 0
-66 45 -118 0
-119 117 0
-119 -118 0
-117 118 119 0
-120 81 0
-120 113 0
-81 -113 120 0
9 120 -121 0
-9 -120 -121 0
9 -120 121 0
-9 120 121 0
-122 -20 0
-122 121 0
20 -121 122 0
-123 -119 0
-123 122 0
119 -122 123 0
-124 47 0
-124 52 0
-47 -52 124 0
-125 -49 0
-125 49 0
124 -125 -126 0
-124 125 -126 0
124 125 126 0
-124 -125 126 0
-123 -126 -127 0
123 126 -127 0
-123 126 127 0
123 -126 127 0
-115 127 -128 0
115 -127 -128 0
-115 -127 128 0
115 127 128 0
-129 -112 0
-129 128 0
112 -128 129 0
-76 -129 -130 0
76 129 -130 0
-76 129 130 0
76 -129 130 0
35 -64 -82 0
121 98 127 -108 52 0
-30 15 100 99 0
54 35 -19 -4 29 1 0
40 -20 -120 -5 0
-91 83 -66 0
-127 128 -65 70 -22 0
-116 122 -126 0
-17 -104 1 -106 0
82 -62 -78 -111 0
35 31 -96 104 0
-109 -70 0
9 -30 113 -16 -43 0
105 70 -27 110 86 -19 0
-39 2 -54 0
68 -46 61 -111 84 0
117 21 -60 0
-14 -64 -86 0
4 -116 -103 0
3 101 -33 -115 82 -8 0
-49 -11 -78 -54 21 0
-63 69 95 -9 0
87 88 -95 53 0
75 114 -87 -49 4 0
126 68 0
-113 -1 -71 0
-6 -128 0
-123 -38 92 0
-40 119 -20 44 26 0
57 19 0
-39 -115 0
99 18 0
-108 32 -122 81 62 -55 0
79 -58 13 -43 0
-73 124 -23 -3 0
4 -117 100 79 -66 70 0
22 -84 -42 39 -18 87 0
-29 1 -28 0
-41 80 -75 -26 129 0
99 3 0
-38 -20 -83 0
-94 97 61 0
-42 -6 0
37 -27 -55 -35 33 0
-125 -63 -75 -56 -34 0
116 107 0
89 122 95 -85 0
78 -69 93 0
103 -68 84 0
-68 37 -1 -111 -117 -93 0
68 -23 18 0
99 23 83 -77 0
39 -7 119 -78 -19 -47 0
107 118 0
113 55 -8 -83 0
130 0
